(set-logic QF_S)
(declare-fun var0 () String)
(declare-fun var1 () String)
(declare-fun var2 () String)
(declare-fun var3 () Int)
(declare-fun var4 () Int)
(declare-fun var5 () Int)
(declare-fun var6 () Bool)
(declare-fun var7 () Bool)
(declare-fun var8 () Bool)
(assert (not (>= 7 var4)))
(assert (< (str.indexof var2 var0 var4) (str.len var0)))
(assert (str.prefixof (str.replace var1 var2 var2) (str.at var2 var5)))
(assert (str.suffixof var0 var2))
(check-sat)